c Random generated cnf formula, satisfiable: true
p cnf 10 50
-3 2 9 0
-10 -4 2 0
-8 -2 -1 0
3 5 -10 0
4 -5 -8 0
4 10 -6 0
2 -9 -5 0
4 -9 -10 0
8 -9 -5 0
-2 -3 6 0
3 4 -9 0
-3 -5 7 0
8 -6 -7 0
-1 -4 -9 0
-6 -3 9 0
10 -4 2 0
9 -4 -10 0
1 4 -6 0
-9 6 -2 0
10 1 7 0
-7 6 -8 0
-5 -10 -7 0
-10 -2 -5 0
-6 -2 8 0
1 3 -4 0
-5 7 4 0
-4 8 1 0
-7 4 -2 0
-2 6 10 0
-6 5 7 0
3 -4 -6 0
9 7 -8 0
6 -1 -7 0
2 -6 -9 0
-4 7 -2 0
5 -2 4 0
-10 7 -8 0
-5 2 -7 0
-8 -2 7 0
-3 9 5 0
2 3 -5 0
8 9 3 0
-2 8 4 0
-8 2 -6 0
5 -10 -3 0
5 -7 8 0
2 -10 -1 0
-6 -10 -5 0
-8 10 5 0
5 7 -4 0
